(set-logic QF_BV)
(declare-fun x0 () (_ BitVec 9))
(declare-fun x1 () (_ BitVec 9))
(declare-fun x2 () (_ BitVec 9))
(declare-fun x3 () (_ BitVec 9))
(declare-fun x4 () (_ BitVec 9))
(declare-fun x5 () (_ BitVec 9))
(assert (= x4 (bvmul x3 x2)))
(assert (= x5 (bvmul x2 x0)))
(assert (= x1 (bvadd x4 x5)))
(assert (= (_ bv0 9) (bvadd x3 x0)))
(assert (= false (= x1 (_ bv0 9))))
(check-sat)
(exit)
